16808 250
50074 659
8931 273
27545 879
77924 710
64441 166
84493 43
7988 504
82328 730
78841 613
44304 170
17710 158
29561 934
93100 279 
51817 336
99098 827
13513 268
23811 634
80980 150
36580 822
11968 673
1394 337
25486 746
25229 92
40195 358
35002 154
16709 945
15669 491
88125 197
9531 904
27723 667
28550 25